2.0 
1.0 
1.0 
3.0 
4.0 
1.0 
3.0 
0.0 
0.0 
2.0 
-------------------------------------------------------------------------------------------------------------
0.0 
0.0 
1.0 
0.0 
0.0 
0.0 
1.0 
2.0 
1.0 
1.0 
-------------------------------------------------------------------------------------------------------------
5.0 
3.0 
7.0 
5.0 
4.0 
8.4 
9.6 
6.4 
12.6 
10.0 
-------------------------------------------------------------------------------------------------------------
0.0 
2.0 
3.0 
3.0 
1.0 
2.0 
1.0 
2.0 
2.0 
0.0 
